70 65 7 86 29 62 83 77 51 74 88 53 98 16 87 81 93 6 91 72 71 69 12 55 35 57 82 41 0 17 4 21 97 80 33 20 63 85 79 40 92 99 75 45 26 30 67 96 22 94 3 52 28 24 19 68 13 31 73 10 76 43 27 32 64 9 25 8 5 54 1 58 37 23 34 2 46 14 15 56 59 44 60 36 18 42 49 89 50 38 84 48 66 90 11 78 95 39 47 61 

